0 5 7 9 1 3 1 3 5 2
5 0 4 8 11 2 7 2 3 1
7 4 0 3 5 8 4 3 2 4
9 8 3 0 9 7 3 2 5 6
1 11 5 9 0 1 11 2 1 1
3 2 8 7 1 0 3 1 4 11
1 7 4 3 11 3 0 2 1 3
3 2 3 2 2 1 2 0 7 5
5 3 2 5 1 4 1 7 0 5
2 1 4 6 1 11 3 5 5 0